unsat
(define-fun f ((x (_ BitVec 64))) (_ BitVec 64) (if0 (bvand #b0000000000000000000000000000000000000000000000000000000000000001 (shr16 x)) (shl1 x) (bvand #b0000000000000000000000000000000000000000000000000000000000000001 x)))
0.40user 0.01system 0:00.42elapsed 100%CPU (0avgtext+0avgdata 58164maxresident)k
0inputs+8outputs (0major+9258minor)pagefaults 0swaps
